p wcnf 175 1259 208
34 1 0
27 2 0
14 3 0
71 4 0
61 5 0
208 -1 -14 15 0
208 -1 -15 16 0
208 -1 -16 17 0
208 -1 -17 18 0
208 -1 -18 19 0
208 -1 -19 20 0
208 -1 -20 21 0
208 -1 -21 22 0
208 -1 -22 23 0
208 -1 -23 24 0
208 -1 -24 25 0
208 -1 -25 26 0
208 -1 -26 27 0
208 -1 -27 28 0
208 -1 -29 30 0
208 -1 -30 31 0
208 -1 -31 32 0
208 -1 -32 33 0
208 -1 -33 34 0
208 -1 -34 35 0
208 -1 -35 36 0
208 -1 -36 37 0
208 -1 -37 38 0
208 -2 -47 48 0
208 -2 -48 49 0
208 -2 -49 50 0
208 -2 -50 51 0
208 -2 -51 52 0
208 -2 -52 53 0
208 -2 -53 54 0
208 -2 -54 55 0
208 -2 -55 56 0
208 -2 -56 57 0
208 -2 -57 58 0
208 -2 -58 59 0
208 -2 -59 60 0
208 -2 -60 61 0
208 -2 -62 63 0
208 -2 -63 64 0
208 -2 -64 65 0
208 -2 -65 66 0
208 -2 -66 67 0
208 -2 -67 68 0
208 -2 -68 69 0
208 -2 -69 70 0
208 -2 -70 71 0
208 -3 -80 81 0
208 -3 -81 82 0
208 -3 -82 83 0
208 -3 -83 84 0
208 -3 -84 85 0
208 -3 -85 86 0
208 -3 -86 87 0
208 -3 -87 88 0
208 -3 -88 89 0
208 -3 -89 90 0
208 -3 -90 91 0
208 -3 -91 92 0
208 -3 -92 93 0
208 -3 -93 94 0
208 -3 -95 96 0
208 -3 -96 97 0
208 -3 -97 98 0
208 -3 -98 99 0
208 -3 -99 100 0
208 -3 -100 101 0
208 -3 -101 102 0
208 -3 -102 103 0
208 -3 -103 104 0
208 -4 -113 114 0
208 -4 -114 115 0
208 -4 -115 116 0
208 -4 -116 117 0
208 -4 -117 118 0
208 -4 -118 119 0
208 -4 -119 120 0
208 -4 -120 121 0
208 -4 -121 122 0
208 -4 -122 123 0
208 -4 -123 124 0
208 -4 -124 125 0
208 -4 -125 126 0
208 -4 -126 127 0
208 -4 -128 129 0
208 -4 -129 130 0
208 -4 -130 131 0
208 -4 -131 132 0
208 -4 -132 133 0
208 -4 -133 134 0
208 -4 -134 135 0
208 -4 -135 136 0
208 -4 -136 137 0
208 -5 -146 147 0
208 -5 -147 148 0
208 -5 -148 149 0
208 -5 -149 150 0
208 -5 -150 151 0
208 -5 -151 152 0
208 -5 -152 153 0
208 -5 -153 154 0
208 -5 -154 155 0
208 -5 -155 156 0
208 -5 -156 157 0
208 -5 -157 158 0
208 -5 -158 159 0
208 -5 -159 160 0
208 -5 -161 162 0
208 -5 -162 163 0
208 -5 -163 164 0
208 -5 -164 165 0
208 -5 -165 166 0
208 -5 -166 167 0
208 -5 -167 168 0
208 -5 -168 169 0
208 -5 -169 170 0
208 -1 -2 6 39 7 40 171 0
208 -1 -2 6 39 7 40 172 0
208 -1 -2 171 -6 -47 0
208 -1 -2 171 -6 -48 0
208 -1 -2 171 -6 -49 0
208 -1 -2 171 -6 -50 0
208 -1 -2 171 -6 -51 0
208 -1 -2 171 -6 -52 0
208 -1 -2 171 -6 -53 0
208 -1 -2 171 -6 -54 0
208 -1 -2 171 -6 -55 0
208 -1 -2 171 -6 -56 0
208 -1 -2 171 -6 -57 0
208 -1 -2 171 -6 -58 0
208 -1 -2 171 -6 -59 0
208 -1 -2 171 -6 -60 0
208 -1 -2 171 -6 -61 0
208 -1 -2 172 -39 -14 0
208 -1 -2 172 -39 -15 0
208 -1 -2 172 -39 -16 0
208 -1 -2 172 -39 -17 0
208 -1 -2 172 -39 -18 0
208 -1 -2 172 -39 -19 0
208 -1 -2 172 -39 -20 0
208 -1 -2 171 -7 -62 0
208 -1 -2 171 -7 -63 0
208 -1 -2 172 -40 -29 0
208 -1 -2 172 -40 -30 0
208 -1 -2 172 -40 -31 0
208 -1 -2 172 -39 47 -21 0
208 -1 -2 172 -39 48 -22 0
208 -1 -2 172 -39 49 -23 0
208 -1 -2 172 -39 50 -24 0
208 -1 -2 172 -39 51 -25 0
208 -1 -2 172 -39 52 -26 0
208 -1 -2 172 -39 53 -27 0
208 -1 -2 172 -39 54 -28 0
208 -1 -2 171 -7 29 -64 0
208 -1 -2 171 -7 30 -65 0
208 -1 -2 171 -7 31 -66 0
208 -1 -2 171 -7 32 -67 0
208 -1 -2 171 -7 33 -68 0
208 -1 -2 171 -7 34 -69 0
208 -1 -2 171 -7 35 -70 0
208 -1 -2 171 -7 36 -71 0
208 -1 -2 172 -40 62 -32 0
208 -1 -2 172 -40 63 -33 0
208 -1 -2 172 -40 64 -34 0
208 -1 -2 172 -40 65 -35 0
208 -1 -2 172 -40 66 -36 0
208 -1 -2 172 -40 67 -37 0
208 -1 -2 172 -40 68 -38 0
208 -1 -2 6 39 7 40 -171 0
208 -1 -2 6 39 7 40 -172 0
208 -1 -2 -171 -6 -47 0
208 -1 -2 -171 -6 -48 0
208 -1 -2 -172 -39 -14 0
208 -1 -2 -172 -39 -15 0
208 -1 -2 -172 -39 -16 0
208 -1 -2 -171 -7 -62 0
208 -1 -2 -171 -7 -63 0
208 -1 -2 -171 -7 -64 0
208 -1 -2 -171 -7 -65 0
208 -1 -2 -171 -7 -66 0
208 -1 -2 -171 -7 -67 0
208 -1 -2 -171 -7 -68 0
208 -1 -2 -171 -7 -69 0
208 -1 -2 -171 -7 -70 0
208 -1 -2 -171 -7 -71 0
208 -1 -2 -172 -40 -29 0
208 -1 -2 -172 -40 -30 0
208 -1 -2 -172 -40 -31 0
208 -1 -2 -172 -40 -32 0
208 -1 -2 -172 -40 -33 0
208 -1 -2 -172 -40 -34 0
208 -1 -2 -172 -40 -35 0
208 -1 -2 -171 -6 14 -49 0
208 -1 -2 -171 -6 15 -50 0
208 -1 -2 -171 -6 16 -51 0
208 -1 -2 -171 -6 17 -52 0
208 -1 -2 -171 -6 18 -53 0
208 -1 -2 -171 -6 19 -54 0
208 -1 -2 -171 -6 20 -55 0
208 -1 -2 -171 -6 21 -56 0
208 -1 -2 -171 -6 22 -57 0
208 -1 -2 -171 -6 23 -58 0
208 -1 -2 -171 -6 24 -59 0
208 -1 -2 -171 -6 25 -60 0
208 -1 -2 -171 -6 26 -61 0
208 -1 -2 -172 -39 47 -17 0
208 -1 -2 -172 -39 48 -18 0
208 -1 -2 -172 -39 49 -19 0
208 -1 -2 -172 -39 50 -20 0
208 -1 -2 -172 -39 51 -21 0
208 -1 -2 -172 -39 52 -22 0
208 -1 -2 -172 -39 53 -23 0
208 -1 -2 -172 -39 54 -24 0
208 -1 -2 -172 -39 55 -25 0
208 -1 -2 -172 -39 56 -26 0
208 -1 -2 -172 -39 57 -27 0
208 -1 -2 -172 -39 58 -28 0
208 -1 -2 -172 -40 62 -36 0
208 -1 -2 -172 -40 63 -37 0
208 -1 -2 -172 -40 64 -38 0
208 -1 -3 8 72 9 73 171 0
208 -1 -3 8 72 9 73 173 0
208 -1 -3 171 -8 -80 0
208 -1 -3 171 -8 -81 0
208 -1 -3 171 -8 -82 0
208 -1 -3 171 -8 -83 0
208 -1 -3 171 -8 -84 0
208 -1 -3 171 -8 -85 0
208 -1 -3 171 -8 -86 0
208 -1 -3 171 -8 -87 0
208 -1 -3 171 -8 -88 0
208 -1 -3 171 -8 -89 0
208 -1 -3 171 -8 -90 0
208 -1 -3 171 -8 -91 0
208 -1 -3 171 -8 -92 0
208 -1 -3 171 -8 -93 0
208 -1 -3 171 -8 -94 0
208 -1 -3 173 -72 -14 0
208 -1 -3 173 -72 -15 0
208 -1 -3 173 -72 -16 0
208 -1 -3 173 -72 -17 0
208 -1 -3 173 -72 -18 0
208 -1 -3 173 -72 -19 0
208 -1 -3 173 -72 -20 0
208 -1 -3 173 -72 -21 0
208 -1 -3 173 -72 -22 0
208 -1 -3 171 -9 -95 0
208 -1 -3 171 -9 -96 0
208 -1 -3 173 -73 -29 0
208 -1 -3 173 -72 80 -23 0
208 -1 -3 173 -72 81 -24 0
208 -1 -3 173 -72 82 -25 0
208 -1 -3 173 -72 83 -26 0
208 -1 -3 173 -72 84 -27 0
208 -1 -3 173 -72 85 -28 0
208 -1 -3 171 -9 29 -97 0
208 -1 -3 171 -9 30 -98 0
208 -1 -3 171 -9 31 -99 0
208 -1 -3 171 -9 32 -100 0
208 -1 -3 171 -9 33 -101 0
208 -1 -3 171 -9 34 -102 0
208 -1 -3 171 -9 35 -103 0
208 -1 -3 171 -9 36 -104 0
208 -1 -3 173 -73 95 -30 0
208 -1 -3 173 -73 96 -31 0
208 -1 -3 173 -73 97 -32 0
208 -1 -3 173 -73 98 -33 0
208 -1 -3 173 -73 99 -34 0
208 -1 -3 173 -73 100 -35 0
208 -1 -3 173 -73 101 -36 0
208 -1 -3 173 -73 102 -37 0
208 -1 -3 173 -73 103 -38 0
208 -1 -3 8 72 9 73 -171 0
208 -1 -3 8 72 9 73 -173 0
208 -1 -3 -171 -8 -80 0
208 -1 -3 -171 -8 -81 0
208 -1 -3 -173 -72 -14 0
208 -1 -3 -171 -9 -95 0
208 -1 -3 -171 -9 -96 0
208 -1 -3 -171 -9 -97 0
208 -1 -3 -171 -9 -98 0
208 -1 -3 -171 -9 -99 0
208 -1 -3 -171 -9 -100 0
208 -1 -3 -171 -9 -101 0
208 -1 -3 -171 -9 -102 0
208 -1 -3 -171 -9 -103 0
208 -1 -3 -171 -9 -104 0
208 -1 -3 -173 -73 -29 0
208 -1 -3 -173 -73 -30 0
208 -1 -3 -173 -73 -31 0
208 -1 -3 -173 -73 -32 0
208 -1 -3 -173 -73 -33 0
208 -1 -3 -173 -73 -34 0
208 -1 -3 -173 -73 -35 0
208 -1 -3 -173 -73 -36 0
208 -1 -3 -173 -73 -37 0
208 -1 -3 -171 -8 14 -82 0
208 -1 -3 -171 -8 15 -83 0
208 -1 -3 -171 -8 16 -84 0
208 -1 -3 -171 -8 17 -85 0
208 -1 -3 -171 -8 18 -86 0
208 -1 -3 -171 -8 19 -87 0
208 -1 -3 -171 -8 20 -88 0
208 -1 -3 -171 -8 21 -89 0
208 -1 -3 -171 -8 22 -90 0
208 -1 -3 -171 -8 23 -91 0
208 -1 -3 -171 -8 24 -92 0
208 -1 -3 -171 -8 25 -93 0
208 -1 -3 -171 -8 26 -94 0
208 -1 -3 -173 -72 80 -15 0
208 -1 -3 -173 -72 81 -16 0
208 -1 -3 -173 -72 82 -17 0
208 -1 -3 -173 -72 83 -18 0
208 -1 -3 -173 -72 84 -19 0
208 -1 -3 -173 -72 85 -20 0
208 -1 -3 -173 -72 86 -21 0
208 -1 -3 -173 -72 87 -22 0
208 -1 -3 -173 -72 88 -23 0
208 -1 -3 -173 -72 89 -24 0
208 -1 -3 -173 -72 90 -25 0
208 -1 -3 -173 -72 91 -26 0
208 -1 -3 -173 -72 92 -27 0
208 -1 -3 -173 -72 93 -28 0
208 -1 -3 -173 -73 95 -38 0
208 -1 -4 10 105 11 106 171 0
208 -1 -4 10 105 11 106 174 0
208 -1 -4 171 -10 -113 0
208 -1 -4 171 -10 -114 0
208 -1 -4 171 -10 -115 0
208 -1 -4 171 -10 -116 0
208 -1 -4 171 -10 -117 0
208 -1 -4 171 -10 -118 0
208 -1 -4 171 -10 -119 0
208 -1 -4 171 -10 -120 0
208 -1 -4 171 -10 -121 0
208 -1 -4 171 -10 -122 0
208 -1 -4 171 -10 -123 0
208 -1 -4 171 -10 -124 0
208 -1 -4 171 -10 -125 0
208 -1 -4 171 -10 -126 0
208 -1 -4 171 -10 -127 0
208 -1 -4 174 -105 -14 0
208 -1 -4 174 -105 -15 0
208 -1 -4 174 -105 -16 0
208 -1 -4 174 -105 -17 0
208 -1 -4 174 -105 -18 0
208 -1 -4 174 -105 -19 0
208 -1 -4 174 -105 -20 0
208 -1 -4 174 -105 -21 0
208 -1 -4 171 -11 -128 0
208 -1 -4 171 -11 -129 0
208 -1 -4 174 -106 -29 0
208 -1 -4 174 -106 -30 0
208 -1 -4 174 -106 -31 0
208 -1 -4 174 -105 113 -22 0
208 -1 -4 174 -105 114 -23 0
208 -1 -4 174 -105 115 -24 0
208 -1 -4 174 -105 116 -25 0
208 -1 -4 174 -105 117 -26 0
208 -1 -4 174 -105 118 -27 0
208 -1 -4 174 -105 119 -28 0
208 -1 -4 171 -11 29 -130 0
208 -1 -4 171 -11 30 -131 0
208 -1 -4 171 -11 31 -132 0
208 -1 -4 171 -11 32 -133 0
208 -1 -4 171 -11 33 -134 0
208 -1 -4 171 -11 34 -135 0
208 -1 -4 171 -11 35 -136 0
208 -1 -4 171 -11 36 -137 0
208 -1 -4 174 -106 128 -32 0
208 -1 -4 174 -106 129 -33 0
208 -1 -4 174 -106 130 -34 0
208 -1 -4 174 -106 131 -35 0
208 -1 -4 174 -106 132 -36 0
208 -1 -4 174 -106 133 -37 0
208 -1 -4 174 -106 134 -38 0
208 -1 -4 10 105 11 106 -171 0
208 -1 -4 10 105 11 106 -174 0
208 -1 -4 -171 -10 -113 0
208 -1 -4 -171 -10 -114 0
208 -1 -4 -174 -105 -14 0
208 -1 -4 -174 -105 -15 0
208 -1 -4 -174 -105 -16 0
208 -1 -4 -171 -11 -128 0
208 -1 -4 -171 -11 -129 0
208 -1 -4 -171 -11 -130 0
208 -1 -4 -171 -11 -131 0
208 -1 -4 -171 -11 -132 0
208 -1 -4 -171 -11 -133 0
208 -1 -4 -171 -11 -134 0
208 -1 -4 -171 -11 -135 0
208 -1 -4 -171 -11 -136 0
208 -1 -4 -171 -11 -137 0
208 -1 -4 -174 -106 -29 0
208 -1 -4 -174 -106 -30 0
208 -1 -4 -174 -106 -31 0
208 -1 -4 -174 -106 -32 0
208 -1 -4 -174 -106 -33 0
208 -1 -4 -174 -106 -34 0
208 -1 -4 -174 -106 -35 0
208 -1 -4 -174 -106 -36 0
208 -1 -4 -171 -10 14 -115 0
208 -1 -4 -171 -10 15 -116 0
208 -1 -4 -171 -10 16 -117 0
208 -1 -4 -171 -10 17 -118 0
208 -1 -4 -171 -10 18 -119 0
208 -1 -4 -171 -10 19 -120 0
208 -1 -4 -171 -10 20 -121 0
208 -1 -4 -171 -10 21 -122 0
208 -1 -4 -171 -10 22 -123 0
208 -1 -4 -171 -10 23 -124 0
208 -1 -4 -171 -10 24 -125 0
208 -1 -4 -171 -10 25 -126 0
208 -1 -4 -171 -10 26 -127 0
208 -1 -4 -174 -105 113 -17 0
208 -1 -4 -174 -105 114 -18 0
208 -1 -4 -174 -105 115 -19 0
208 -1 -4 -174 -105 116 -20 0
208 -1 -4 -174 -105 117 -21 0
208 -1 -4 -174 -105 118 -22 0
208 -1 -4 -174 -105 119 -23 0
208 -1 -4 -174 -105 120 -24 0
208 -1 -4 -174 -105 121 -25 0
208 -1 -4 -174 -105 122 -26 0
208 -1 -4 -174 -105 123 -27 0
208 -1 -4 -174 -105 124 -28 0
208 -1 -4 -174 -106 128 -37 0
208 -1 -4 -174 -106 129 -38 0
208 -1 -5 12 138 13 139 171 0
208 -1 -5 12 138 13 139 175 0
208 -1 -5 171 -12 -146 0
208 -1 -5 171 -12 -147 0
208 -1 -5 171 -12 -148 0
208 -1 -5 171 -12 -149 0
208 -1 -5 171 -12 -150 0
208 -1 -5 171 -12 -151 0
208 -1 -5 171 -12 -152 0
208 -1 -5 171 -12 -153 0
208 -1 -5 171 -12 -154 0
208 -1 -5 171 -12 -155 0
208 -1 -5 171 -12 -156 0
208 -1 -5 171 -12 -157 0
208 -1 -5 171 -12 -158 0
208 -1 -5 171 -12 -159 0
208 -1 -5 171 -12 -160 0
208 -1 -5 175 -138 -14 0
208 -1 -5 175 -138 -15 0
208 -1 -5 175 -138 -16 0
208 -1 -5 175 -138 -17 0
208 -1 -5 175 -138 -18 0
208 -1 -5 175 -138 -19 0
208 -1 -5 175 -138 -20 0
208 -1 -5 175 -138 -21 0
208 -1 -5 175 -138 -22 0
208 -1 -5 175 -138 -23 0
208 -1 -5 175 -138 -24 0
208 -1 -5 175 -138 -25 0
208 -1 -5 171 -13 -161 0
208 -1 -5 171 -13 -162 0
208 -1 -5 175 -139 -29 0
208 -1 -5 175 -139 -30 0
208 -1 -5 175 -138 146 -26 0
208 -1 -5 175 -138 147 -27 0
208 -1 -5 175 -138 148 -28 0
208 -1 -5 171 -13 29 -163 0
208 -1 -5 171 -13 30 -164 0
208 -1 -5 171 -13 31 -165 0
208 -1 -5 171 -13 32 -166 0
208 -1 -5 171 -13 33 -167 0
208 -1 -5 171 -13 34 -168 0
208 -1 -5 171 -13 35 -169 0
208 -1 -5 171 -13 36 -170 0
208 -1 -5 175 -139 161 -31 0
208 -1 -5 175 -139 162 -32 0
208 -1 -5 175 -139 163 -33 0
208 -1 -5 175 -139 164 -34 0
208 -1 -5 175 -139 165 -35 0
208 -1 -5 175 -139 166 -36 0
208 -1 -5 175 -139 167 -37 0
208 -1 -5 175 -139 168 -38 0
208 -1 -5 12 138 13 139 -171 0
208 -1 -5 12 138 13 139 -175 0
208 -1 -5 -171 -12 -146 0
208 -1 -5 -171 -12 -147 0
208 -1 -5 -175 -138 -14 0
208 -1 -5 -175 -138 -15 0
208 -1 -5 -171 -13 -161 0
208 -1 -5 -171 -13 -162 0
208 -1 -5 -171 -13 -163 0
208 -1 -5 -171 -13 -164 0
208 -1 -5 -171 -13 -165 0
208 -1 -5 -171 -13 -166 0
208 -1 -5 -171 -13 -167 0
208 -1 -5 -171 -13 -168 0
208 -1 -5 -171 -13 -169 0
208 -1 -5 -171 -13 -170 0
208 -1 -5 -175 -139 -29 0
208 -1 -5 -175 -139 -30 0
208 -1 -5 -175 -139 -31 0
208 -1 -5 -175 -139 -32 0
208 -1 -5 -175 -139 -33 0
208 -1 -5 -175 -139 -34 0
208 -1 -5 -175 -139 -35 0
208 -1 -5 -175 -139 -36 0
208 -1 -5 -175 -139 -37 0
208 -1 -5 -175 -139 -38 0
208 -1 -5 -171 -12 14 -148 0
208 -1 -5 -171 -12 15 -149 0
208 -1 -5 -171 -12 16 -150 0
208 -1 -5 -171 -12 17 -151 0
208 -1 -5 -171 -12 18 -152 0
208 -1 -5 -171 -12 19 -153 0
208 -1 -5 -171 -12 20 -154 0
208 -1 -5 -171 -12 21 -155 0
208 -1 -5 -171 -12 22 -156 0
208 -1 -5 -171 -12 23 -157 0
208 -1 -5 -171 -12 24 -158 0
208 -1 -5 -171 -12 25 -159 0
208 -1 -5 -171 -12 26 -160 0
208 -1 -5 -175 -138 146 -16 0
208 -1 -5 -175 -138 147 -17 0
208 -1 -5 -175 -138 148 -18 0
208 -1 -5 -175 -138 149 -19 0
208 -1 -5 -175 -138 150 -20 0
208 -1 -5 -175 -138 151 -21 0
208 -1 -5 -175 -138 152 -22 0
208 -1 -5 -175 -138 153 -23 0
208 -1 -5 -175 -138 154 -24 0
208 -1 -5 -175 -138 155 -25 0
208 -1 -5 -175 -138 156 -26 0
208 -1 -5 -175 -138 157 -27 0
208 -1 -5 -175 -138 158 -28 0
208 -2 -3 41 74 42 75 172 0
208 -2 -3 41 74 42 75 173 0
208 -2 -3 172 -41 -80 0
208 -2 -3 172 -41 -81 0
208 -2 -3 172 -41 -82 0
208 -2 -3 172 -41 -83 0
208 -2 -3 172 -41 -84 0
208 -2 -3 172 -41 -85 0
208 -2 -3 172 -41 -86 0
208 -2 -3 173 -74 -47 0
208 -2 -3 173 -74 -48 0
208 -2 -3 173 -74 -49 0
208 -2 -3 173 -74 -50 0
208 -2 -3 173 -74 -51 0
208 -2 -3 173 -74 -52 0
208 -2 -3 173 -74 -53 0
208 -2 -3 173 -74 -54 0
208 -2 -3 173 -74 -55 0
208 -2 -3 172 -42 -95 0
208 -2 -3 172 -42 -96 0
208 -2 -3 172 -42 -97 0
208 -2 -3 173 -75 -62 0
208 -2 -3 172 -41 47 -87 0
208 -2 -3 172 -41 48 -88 0
208 -2 -3 172 -41 49 -89 0
208 -2 -3 172 -41 50 -90 0
208 -2 -3 172 -41 51 -91 0
208 -2 -3 172 -41 52 -92 0
208 -2 -3 172 -41 53 -93 0
208 -2 -3 172 -41 54 -94 0
208 -2 -3 173 -74 80 -56 0
208 -2 -3 173 -74 81 -57 0
208 -2 -3 173 -74 82 -58 0
208 -2 -3 173 -74 83 -59 0
208 -2 -3 173 -74 84 -60 0
208 -2 -3 173 -74 85 -61 0
208 -2 -3 172 -42 62 -98 0
208 -2 -3 172 -42 63 -99 0
208 -2 -3 172 -42 64 -100 0
208 -2 -3 172 -42 65 -101 0
208 -2 -3 172 -42 66 -102 0
208 -2 -3 172 -42 67 -103 0
208 -2 -3 172 -42 68 -104 0
208 -2 -3 173 -75 95 -63 0
208 -2 -3 173 -75 96 -64 0
208 -2 -3 173 -75 97 -65 0
208 -2 -3 173 -75 98 -66 0
208 -2 -3 173 -75 99 -67 0
208 -2 -3 173 -75 100 -68 0
208 -2 -3 173 -75 101 -69 0
208 -2 -3 173 -75 102 -70 0
208 -2 -3 173 -75 103 -71 0
208 -2 -3 41 74 42 75 -172 0
208 -2 -3 41 74 42 75 -173 0
208 -2 -3 -172 -41 -80 0
208 -2 -3 -172 -41 -81 0
208 -2 -3 -172 -41 -82 0
208 -2 -3 -173 -74 -47 0
208 -2 -3 -172 -42 -95 0
208 -2 -3 -172 -42 -96 0
208 -2 -3 -172 -42 -97 0
208 -2 -3 -172 -42 -98 0
208 -2 -3 -172 -42 -99 0
208 -2 -3 -172 -42 -100 0
208 -2 -3 -172 -42 -101 0
208 -2 -3 -173 -75 -62 0
208 -2 -3 -173 -75 -63 0
208 -2 -3 -173 -75 -64 0
208 -2 -3 -173 -75 -65 0
208 -2 -3 -173 -75 -66 0
208 -2 -3 -173 -75 -67 0
208 -2 -3 -173 -75 -68 0
208 -2 -3 -173 -75 -69 0
208 -2 -3 -173 -75 -70 0
208 -2 -3 -172 -41 47 -83 0
208 -2 -3 -172 -41 48 -84 0
208 -2 -3 -172 -41 49 -85 0
208 -2 -3 -172 -41 50 -86 0
208 -2 -3 -172 -41 51 -87 0
208 -2 -3 -172 -41 52 -88 0
208 -2 -3 -172 -41 53 -89 0
208 -2 -3 -172 -41 54 -90 0
208 -2 -3 -172 -41 55 -91 0
208 -2 -3 -172 -41 56 -92 0
208 -2 -3 -172 -41 57 -93 0
208 -2 -3 -172 -41 58 -94 0
208 -2 -3 -173 -74 80 -48 0
208 -2 -3 -173 -74 81 -49 0
208 -2 -3 -173 -74 82 -50 0
208 -2 -3 -173 -74 83 -51 0
208 -2 -3 -173 -74 84 -52 0
208 -2 -3 -173 -74 85 -53 0
208 -2 -3 -173 -74 86 -54 0
208 -2 -3 -173 -74 87 -55 0
208 -2 -3 -173 -74 88 -56 0
208 -2 -3 -173 -74 89 -57 0
208 -2 -3 -173 -74 90 -58 0
208 -2 -3 -173 -74 91 -59 0
208 -2 -3 -173 -74 92 -60 0
208 -2 -3 -173 -74 93 -61 0
208 -2 -3 -172 -42 62 -102 0
208 -2 -3 -172 -42 63 -103 0
208 -2 -3 -172 -42 64 -104 0
208 -2 -3 -173 -75 95 -71 0
208 -2 -4 43 107 44 108 172 0
208 -2 -4 43 107 44 108 174 0
208 -2 -4 172 -43 -113 0
208 -2 -4 172 -43 -114 0
208 -2 -4 172 -43 -115 0
208 -2 -4 172 -43 -116 0
208 -2 -4 172 -43 -117 0
208 -2 -4 172 -43 -118 0
208 -2 -4 172 -43 -119 0
208 -2 -4 174 -107 -47 0
208 -2 -4 174 -107 -48 0
208 -2 -4 174 -107 -49 0
208 -2 -4 174 -107 -50 0
208 -2 -4 174 -107 -51 0
208 -2 -4 174 -107 -52 0
208 -2 -4 174 -107 -53 0
208 -2 -4 174 -107 -54 0
208 -2 -4 172 -44 -128 0
208 -2 -4 172 -44 -129 0
208 -2 -4 172 -44 -130 0
208 -2 -4 174 -108 -62 0
208 -2 -4 174 -108 -63 0
208 -2 -4 174 -108 -64 0
208 -2 -4 172 -43 47 -120 0
208 -2 -4 172 -43 48 -121 0
208 -2 -4 172 -43 49 -122 0
208 -2 -4 172 -43 50 -123 0
208 -2 -4 172 -43 51 -124 0
208 -2 -4 172 -43 52 -125 0
208 -2 -4 172 -43 53 -126 0
208 -2 -4 172 -43 54 -127 0
208 -2 -4 174 -107 113 -55 0
208 -2 -4 174 -107 114 -56 0
208 -2 -4 174 -107 115 -57 0
208 -2 -4 174 -107 116 -58 0
208 -2 -4 174 -107 117 -59 0
208 -2 -4 174 -107 118 -60 0
208 -2 -4 174 -107 119 -61 0
208 -2 -4 172 -44 62 -131 0
208 -2 -4 172 -44 63 -132 0
208 -2 -4 172 -44 64 -133 0
208 -2 -4 172 -44 65 -134 0
208 -2 -4 172 -44 66 -135 0
208 -2 -4 172 -44 67 -136 0
208 -2 -4 172 -44 68 -137 0
208 -2 -4 174 -108 128 -65 0
208 -2 -4 174 -108 129 -66 0
208 -2 -4 174 -108 130 -67 0
208 -2 -4 174 -108 131 -68 0
208 -2 -4 174 -108 132 -69 0
208 -2 -4 174 -108 133 -70 0
208 -2 -4 174 -108 134 -71 0
208 -2 -4 43 107 44 108 -172 0
208 -2 -4 43 107 44 108 -174 0
208 -2 -4 -172 -43 -113 0
208 -2 -4 -172 -43 -114 0
208 -2 -4 -172 -43 -115 0
208 -2 -4 -174 -107 -47 0
208 -2 -4 -174 -107 -48 0
208 -2 -4 -174 -107 -49 0
208 -2 -4 -172 -44 -128 0
208 -2 -4 -172 -44 -129 0
208 -2 -4 -172 -44 -130 0
208 -2 -4 -172 -44 -131 0
208 -2 -4 -172 -44 -132 0
208 -2 -4 -172 -44 -133 0
208 -2 -4 -172 -44 -134 0
208 -2 -4 -174 -108 -62 0
208 -2 -4 -174 -108 -63 0
208 -2 -4 -174 -108 -64 0
208 -2 -4 -174 -108 -65 0
208 -2 -4 -174 -108 -66 0
208 -2 -4 -174 -108 -67 0
208 -2 -4 -174 -108 -68 0
208 -2 -4 -174 -108 -69 0
208 -2 -4 -172 -43 47 -116 0
208 -2 -4 -172 -43 48 -117 0
208 -2 -4 -172 -43 49 -118 0
208 -2 -4 -172 -43 50 -119 0
208 -2 -4 -172 -43 51 -120 0
208 -2 -4 -172 -43 52 -121 0
208 -2 -4 -172 -43 53 -122 0
208 -2 -4 -172 -43 54 -123 0
208 -2 -4 -172 -43 55 -124 0
208 -2 -4 -172 -43 56 -125 0
208 -2 -4 -172 -43 57 -126 0
208 -2 -4 -172 -43 58 -127 0
208 -2 -4 -174 -107 113 -50 0
208 -2 -4 -174 -107 114 -51 0
208 -2 -4 -174 -107 115 -52 0
208 -2 -4 -174 -107 116 -53 0
208 -2 -4 -174 -107 117 -54 0
208 -2 -4 -174 -107 118 -55 0
208 -2 -4 -174 -107 119 -56 0
208 -2 -4 -174 -107 120 -57 0
208 -2 -4 -174 -107 121 -58 0
208 -2 -4 -174 -107 122 -59 0
208 -2 -4 -174 -107 123 -60 0
208 -2 -4 -174 -107 124 -61 0
208 -2 -4 -172 -44 62 -135 0
208 -2 -4 -172 -44 63 -136 0
208 -2 -4 -172 -44 64 -137 0
208 -2 -4 -174 -108 128 -70 0
208 -2 -4 -174 -108 129 -71 0
208 -2 -5 45 140 46 141 172 0
208 -2 -5 45 140 46 141 175 0
208 -2 -5 172 -45 -146 0
208 -2 -5 172 -45 -147 0
208 -2 -5 172 -45 -148 0
208 -2 -5 172 -45 -149 0
208 -2 -5 172 -45 -150 0
208 -2 -5 172 -45 -151 0
208 -2 -5 172 -45 -152 0
208 -2 -5 175 -140 -47 0
208 -2 -5 175 -140 -48 0
208 -2 -5 175 -140 -49 0
208 -2 -5 175 -140 -50 0
208 -2 -5 175 -140 -51 0
208 -2 -5 175 -140 -52 0
208 -2 -5 175 -140 -53 0
208 -2 -5 175 -140 -54 0
208 -2 -5 175 -140 -55 0
208 -2 -5 175 -140 -56 0
208 -2 -5 175 -140 -57 0
208 -2 -5 175 -140 -58 0
208 -2 -5 172 -46 -161 0
208 -2 -5 172 -46 -162 0
208 -2 -5 172 -46 -163 0
208 -2 -5 175 -141 -62 0
208 -2 -5 175 -141 -63 0
208 -2 -5 172 -45 47 -153 0
208 -2 -5 172 -45 48 -154 0
208 -2 -5 172 -45 49 -155 0
208 -2 -5 172 -45 50 -156 0
208 -2 -5 172 -45 51 -157 0
208 -2 -5 172 -45 52 -158 0
208 -2 -5 172 -45 53 -159 0
208 -2 -5 172 -45 54 -160 0
208 -2 -5 175 -140 146 -59 0
208 -2 -5 175 -140 147 -60 0
208 -2 -5 175 -140 148 -61 0
208 -2 -5 172 -46 62 -164 0
208 -2 -5 172 -46 63 -165 0
208 -2 -5 172 -46 64 -166 0
208 -2 -5 172 -46 65 -167 0
208 -2 -5 172 -46 66 -168 0
208 -2 -5 172 -46 67 -169 0
208 -2 -5 172 -46 68 -170 0
208 -2 -5 175 -141 161 -64 0
208 -2 -5 175 -141 162 -65 0
208 -2 -5 175 -141 163 -66 0
208 -2 -5 175 -141 164 -67 0
208 -2 -5 175 -141 165 -68 0
208 -2 -5 175 -141 166 -69 0
208 -2 -5 175 -141 167 -70 0
208 -2 -5 175 -141 168 -71 0
208 -2 -5 45 140 46 141 -172 0
208 -2 -5 45 140 46 141 -175 0
208 -2 -5 -172 -45 -146 0
208 -2 -5 -172 -45 -147 0
208 -2 -5 -172 -45 -148 0
208 -2 -5 -175 -140 -47 0
208 -2 -5 -175 -140 -48 0
208 -2 -5 -172 -46 -161 0
208 -2 -5 -172 -46 -162 0
208 -2 -5 -172 -46 -163 0
208 -2 -5 -172 -46 -164 0
208 -2 -5 -172 -46 -165 0
208 -2 -5 -172 -46 -166 0
208 -2 -5 -172 -46 -167 0
208 -2 -5 -175 -141 -62 0
208 -2 -5 -175 -141 -63 0
208 -2 -5 -175 -141 -64 0
208 -2 -5 -175 -141 -65 0
208 -2 -5 -175 -141 -66 0
208 -2 -5 -175 -141 -67 0
208 -2 -5 -175 -141 -68 0
208 -2 -5 -175 -141 -69 0
208 -2 -5 -175 -141 -70 0
208 -2 -5 -175 -141 -71 0
208 -2 -5 -172 -45 47 -149 0
208 -2 -5 -172 -45 48 -150 0
208 -2 -5 -172 -45 49 -151 0
208 -2 -5 -172 -45 50 -152 0
208 -2 -5 -172 -45 51 -153 0
208 -2 -5 -172 -45 52 -154 0
208 -2 -5 -172 -45 53 -155 0
208 -2 -5 -172 -45 54 -156 0
208 -2 -5 -172 -45 55 -157 0
208 -2 -5 -172 -45 56 -158 0
208 -2 -5 -172 -45 57 -159 0
208 -2 -5 -172 -45 58 -160 0
208 -2 -5 -175 -140 146 -49 0
208 -2 -5 -175 -140 147 -50 0
208 -2 -5 -175 -140 148 -51 0
208 -2 -5 -175 -140 149 -52 0
208 -2 -5 -175 -140 150 -53 0
208 -2 -5 -175 -140 151 -54 0
208 -2 -5 -175 -140 152 -55 0
208 -2 -5 -175 -140 153 -56 0
208 -2 -5 -175 -140 154 -57 0
208 -2 -5 -175 -140 155 -58 0
208 -2 -5 -175 -140 156 -59 0
208 -2 -5 -175 -140 157 -60 0
208 -2 -5 -175 -140 158 -61 0
208 -2 -5 -172 -46 62 -168 0
208 -2 -5 -172 -46 63 -169 0
208 -2 -5 -172 -46 64 -170 0
208 -3 -4 76 109 77 110 173 0
208 -3 -4 76 109 77 110 174 0
208 -3 -4 173 -76 -113 0
208 -3 -4 173 -76 -114 0
208 -3 -4 173 -76 -115 0
208 -3 -4 173 -76 -116 0
208 -3 -4 173 -76 -117 0
208 -3 -4 173 -76 -118 0
208 -3 -4 173 -76 -119 0
208 -3 -4 173 -76 -120 0
208 -3 -4 173 -76 -121 0
208 -3 -4 174 -109 -80 0
208 -3 -4 174 -109 -81 0
208 -3 -4 174 -109 -82 0
208 -3 -4 174 -109 -83 0
208 -3 -4 174 -109 -84 0
208 -3 -4 174 -109 -85 0
208 -3 -4 174 -109 -86 0
208 -3 -4 174 -109 -87 0
208 -3 -4 173 -77 -128 0
208 -3 -4 174 -110 -95 0
208 -3 -4 174 -110 -96 0
208 -3 -4 174 -110 -97 0
208 -3 -4 173 -76 80 -122 0
208 -3 -4 173 -76 81 -123 0
208 -3 -4 173 -76 82 -124 0
208 -3 -4 173 -76 83 -125 0
208 -3 -4 173 -76 84 -126 0
208 -3 -4 173 -76 85 -127 0
208 -3 -4 174 -109 113 -88 0
208 -3 -4 174 -109 114 -89 0
208 -3 -4 174 -109 115 -90 0
208 -3 -4 174 -109 116 -91 0
208 -3 -4 174 -109 117 -92 0
208 -3 -4 174 -109 118 -93 0
208 -3 -4 174 -109 119 -94 0
208 -3 -4 173 -77 95 -129 0
208 -3 -4 173 -77 96 -130 0
208 -3 -4 173 -77 97 -131 0
208 -3 -4 173 -77 98 -132 0
208 -3 -4 173 -77 99 -133 0
208 -3 -4 173 -77 100 -134 0
208 -3 -4 173 -77 101 -135 0
208 -3 -4 173 -77 102 -136 0
208 -3 -4 173 -77 103 -137 0
208 -3 -4 174 -110 128 -98 0
208 -3 -4 174 -110 129 -99 0
208 -3 -4 174 -110 130 -100 0
208 -3 -4 174 -110 131 -101 0
208 -3 -4 174 -110 132 -102 0
208 -3 -4 174 -110 133 -103 0
208 -3 -4 174 -110 134 -104 0
208 -3 -4 76 109 77 110 -173 0
208 -3 -4 76 109 77 110 -174 0
208 -3 -4 -173 -76 -113 0
208 -3 -4 -174 -109 -80 0
208 -3 -4 -174 -109 -81 0
208 -3 -4 -174 -109 -82 0
208 -3 -4 -173 -77 -128 0
208 -3 -4 -173 -77 -129 0
208 -3 -4 -173 -77 -130 0
208 -3 -4 -173 -77 -131 0
208 -3 -4 -173 -77 -132 0
208 -3 -4 -173 -77 -133 0
208 -3 -4 -173 -77 -134 0
208 -3 -4 -173 -77 -135 0
208 -3 -4 -173 -77 -136 0
208 -3 -4 -174 -110 -95 0
208 -3 -4 -174 -110 -96 0
208 -3 -4 -174 -110 -97 0
208 -3 -4 -174 -110 -98 0
208 -3 -4 -174 -110 -99 0
208 -3 -4 -174 -110 -100 0
208 -3 -4 -174 -110 -101 0
208 -3 -4 -174 -110 -102 0
208 -3 -4 -173 -76 80 -114 0
208 -3 -4 -173 -76 81 -115 0
208 -3 -4 -173 -76 82 -116 0
208 -3 -4 -173 -76 83 -117 0
208 -3 -4 -173 -76 84 -118 0
208 -3 -4 -173 -76 85 -119 0
208 -3 -4 -173 -76 86 -120 0
208 -3 -4 -173 -76 87 -121 0
208 -3 -4 -173 -76 88 -122 0
208 -3 -4 -173 -76 89 -123 0
208 -3 -4 -173 -76 90 -124 0
208 -3 -4 -173 -76 91 -125 0
208 -3 -4 -173 -76 92 -126 0
208 -3 -4 -173 -76 93 -127 0
208 -3 -4 -174 -109 113 -83 0
208 -3 -4 -174 -109 114 -84 0
208 -3 -4 -174 -109 115 -85 0
208 -3 -4 -174 -109 116 -86 0
208 -3 -4 -174 -109 117 -87 0
208 -3 -4 -174 -109 118 -88 0
208 -3 -4 -174 -109 119 -89 0
208 -3 -4 -174 -109 120 -90 0
208 -3 -4 -174 -109 121 -91 0
208 -3 -4 -174 -109 122 -92 0
208 -3 -4 -174 -109 123 -93 0
208 -3 -4 -174 -109 124 -94 0
208 -3 -4 -173 -77 95 -137 0
208 -3 -4 -174 -110 128 -103 0
208 -3 -4 -174 -110 129 -104 0
208 -3 -5 78 142 79 143 173 0
208 -3 -5 78 142 79 143 175 0
208 -3 -5 173 -78 -146 0
208 -3 -5 173 -78 -147 0
208 -3 -5 173 -78 -148 0
208 -3 -5 173 -78 -149 0
208 -3 -5 173 -78 -150 0
208 -3 -5 173 -78 -151 0
208 -3 -5 173 -78 -152 0
208 -3 -5 173 -78 -153 0
208 -3 -5 173 -78 -154 0
208 -3 -5 175 -142 -80 0
208 -3 -5 175 -142 -81 0
208 -3 -5 175 -142 -82 0
208 -3 -5 175 -142 -83 0
208 -3 -5 175 -142 -84 0
208 -3 -5 175 -142 -85 0
208 -3 -5 175 -142 -86 0
208 -3 -5 175 -142 -87 0
208 -3 -5 175 -142 -88 0
208 -3 -5 175 -142 -89 0
208 -3 -5 175 -142 -90 0
208 -3 -5 175 -142 -91 0
208 -3 -5 173 -79 -161 0
208 -3 -5 175 -143 -95 0
208 -3 -5 175 -143 -96 0
208 -3 -5 173 -78 80 -155 0
208 -3 -5 173 -78 81 -156 0
208 -3 -5 173 -78 82 -157 0
208 -3 -5 173 -78 83 -158 0
208 -3 -5 173 -78 84 -159 0
208 -3 -5 173 -78 85 -160 0
208 -3 -5 175 -142 146 -92 0
208 -3 -5 175 -142 147 -93 0
208 -3 -5 175 -142 148 -94 0
208 -3 -5 173 -79 95 -162 0
208 -3 -5 173 -79 96 -163 0
208 -3 -5 173 -79 97 -164 0
208 -3 -5 173 -79 98 -165 0
208 -3 -5 173 -79 99 -166 0
208 -3 -5 173 -79 100 -167 0
208 -3 -5 173 -79 101 -168 0
208 -3 -5 173 -79 102 -169 0
208 -3 -5 173 -79 103 -170 0
208 -3 -5 175 -143 161 -97 0
208 -3 -5 175 -143 162 -98 0
208 -3 -5 175 -143 163 -99 0
208 -3 -5 175 -143 164 -100 0
208 -3 -5 175 -143 165 -101 0
208 -3 -5 175 -143 166 -102 0
208 -3 -5 175 -143 167 -103 0
208 -3 -5 175 -143 168 -104 0
208 -3 -5 78 142 79 143 -173 0
208 -3 -5 78 142 79 143 -175 0
208 -3 -5 -173 -78 -146 0
208 -3 -5 -175 -142 -80 0
208 -3 -5 -175 -142 -81 0
208 -3 -5 -173 -79 -161 0
208 -3 -5 -173 -79 -162 0
208 -3 -5 -173 -79 -163 0
208 -3 -5 -173 -79 -164 0
208 -3 -5 -173 -79 -165 0
208 -3 -5 -173 -79 -166 0
208 -3 -5 -173 -79 -167 0
208 -3 -5 -173 -79 -168 0
208 -3 -5 -173 -79 -169 0
208 -3 -5 -175 -143 -95 0
208 -3 -5 -175 -143 -96 0
208 -3 -5 -175 -143 -97 0
208 -3 -5 -175 -143 -98 0
208 -3 -5 -175 -143 -99 0
208 -3 -5 -175 -143 -100 0
208 -3 -5 -175 -143 -101 0
208 -3 -5 -175 -143 -102 0
208 -3 -5 -175 -143 -103 0
208 -3 -5 -175 -143 -104 0
208 -3 -5 -173 -78 80 -147 0
208 -3 -5 -173 -78 81 -148 0
208 -3 -5 -173 -78 82 -149 0
208 -3 -5 -173 -78 83 -150 0
208 -3 -5 -173 -78 84 -151 0
208 -3 -5 -173 -78 85 -152 0
208 -3 -5 -173 -78 86 -153 0
208 -3 -5 -173 -78 87 -154 0
208 -3 -5 -173 -78 88 -155 0
208 -3 -5 -173 -78 89 -156 0
208 -3 -5 -173 -78 90 -157 0
208 -3 -5 -173 -78 91 -158 0
208 -3 -5 -173 -78 92 -159 0
208 -3 -5 -173 -78 93 -160 0
208 -3 -5 -175 -142 146 -82 0
208 -3 -5 -175 -142 147 -83 0
208 -3 -5 -175 -142 148 -84 0
208 -3 -5 -175 -142 149 -85 0
208 -3 -5 -175 -142 150 -86 0
208 -3 -5 -175 -142 151 -87 0
208 -3 -5 -175 -142 152 -88 0
208 -3 -5 -175 -142 153 -89 0
208 -3 -5 -175 -142 154 -90 0
208 -3 -5 -175 -142 155 -91 0
208 -3 -5 -175 -142 156 -92 0
208 -3 -5 -175 -142 157 -93 0
208 -3 -5 -175 -142 158 -94 0
208 -3 -5 -173 -79 95 -170 0
208 -4 -5 111 144 112 145 174 0
208 -4 -5 111 144 112 145 175 0
208 -4 -5 174 -111 -146 0
208 -4 -5 174 -111 -147 0
208 -4 -5 174 -111 -148 0
208 -4 -5 174 -111 -149 0
208 -4 -5 174 -111 -150 0
208 -4 -5 174 -111 -151 0
208 -4 -5 174 -111 -152 0
208 -4 -5 174 -111 -153 0
208 -4 -5 175 -144 -113 0
208 -4 -5 175 -144 -114 0
208 -4 -5 175 -144 -115 0
208 -4 -5 175 -144 -116 0
208 -4 -5 175 -144 -117 0
208 -4 -5 175 -144 -118 0
208 -4 -5 175 -144 -119 0
208 -4 -5 175 -144 -120 0
208 -4 -5 175 -144 -121 0
208 -4 -5 175 -144 -122 0
208 -4 -5 175 -144 -123 0
208 -4 -5 175 -144 -124 0
208 -4 -5 174 -112 -161 0
208 -4 -5 174 -112 -162 0
208 -4 -5 174 -112 -163 0
208 -4 -5 175 -145 -128 0
208 -4 -5 175 -145 -129 0
208 -4 -5 174 -111 113 -154 0
208 -4 -5 174 -111 114 -155 0
208 -4 -5 174 -111 115 -156 0
208 -4 -5 174 -111 116 -157 0
208 -4 -5 174 -111 117 -158 0
208 -4 -5 174 -111 118 -159 0
208 -4 -5 174 -111 119 -160 0
208 -4 -5 175 -144 146 -125 0
208 -4 -5 175 -144 147 -126 0
208 -4 -5 175 -144 148 -127 0
208 -4 -5 174 -112 128 -164 0
208 -4 -5 174 -112 129 -165 0
208 -4 -5 174 -112 130 -166 0
208 -4 -5 174 -112 131 -167 0
208 -4 -5 174 -112 132 -168 0
208 -4 -5 174 -112 133 -169 0
208 -4 -5 174 -112 134 -170 0
208 -4 -5 175 -145 161 -130 0
208 -4 -5 175 -145 162 -131 0
208 -4 -5 175 -145 163 -132 0
208 -4 -5 175 -145 164 -133 0
208 -4 -5 175 -145 165 -134 0
208 -4 -5 175 -145 166 -135 0
208 -4 -5 175 -145 167 -136 0
208 -4 -5 175 -145 168 -137 0
208 -4 -5 111 144 112 145 -174 0
208 -4 -5 111 144 112 145 -175 0
208 -4 -5 -174 -111 -146 0
208 -4 -5 -174 -111 -147 0
208 -4 -5 -174 -111 -148 0
208 -4 -5 -175 -144 -113 0
208 -4 -5 -175 -144 -114 0
208 -4 -5 -174 -112 -161 0
208 -4 -5 -174 -112 -162 0
208 -4 -5 -174 -112 -163 0
208 -4 -5 -174 -112 -164 0
208 -4 -5 -174 -112 -165 0
208 -4 -5 -174 -112 -166 0
208 -4 -5 -174 -112 -167 0
208 -4 -5 -174 -112 -168 0
208 -4 -5 -175 -145 -128 0
208 -4 -5 -175 -145 -129 0
208 -4 -5 -175 -145 -130 0
208 -4 -5 -175 -145 -131 0
208 -4 -5 -175 -145 -132 0
208 -4 -5 -175 -145 -133 0
208 -4 -5 -175 -145 -134 0
208 -4 -5 -175 -145 -135 0
208 -4 -5 -175 -145 -136 0
208 -4 -5 -175 -145 -137 0
208 -4 -5 -174 -111 113 -149 0
208 -4 -5 -174 -111 114 -150 0
208 -4 -5 -174 -111 115 -151 0
208 -4 -5 -174 -111 116 -152 0
208 -4 -5 -174 -111 117 -153 0
208 -4 -5 -174 -111 118 -154 0
208 -4 -5 -174 -111 119 -155 0
208 -4 -5 -174 -111 120 -156 0
208 -4 -5 -174 -111 121 -157 0
208 -4 -5 -174 -111 122 -158 0
208 -4 -5 -174 -111 123 -159 0
208 -4 -5 -174 -111 124 -160 0
208 -4 -5 -175 -144 146 -115 0
208 -4 -5 -175 -144 147 -116 0
208 -4 -5 -175 -144 148 -117 0
208 -4 -5 -175 -144 149 -118 0
208 -4 -5 -175 -144 150 -119 0
208 -4 -5 -175 -144 151 -120 0
208 -4 -5 -175 -144 152 -121 0
208 -4 -5 -175 -144 153 -122 0
208 -4 -5 -175 -144 154 -123 0
208 -4 -5 -175 -144 155 -124 0
208 -4 -5 -175 -144 156 -125 0
208 -4 -5 -175 -144 157 -126 0
208 -4 -5 -175 -144 158 -127 0
208 -4 -5 -174 -112 128 -169 0
208 -4 -5 -174 -112 129 -170 0
208 171 14 -1 0
208 171 15 -1 0
208 171 16 -1 0
208 171 17 -1 0
208 171 18 -1 0
208 171 19 -1 0
208 171 20 -1 0
208 171 21 -1 0
208 171 22 -1 0
208 171 23 -1 0
208 171 24 -1 0
208 171 25 -1 0
208 171 26 -1 0
208 171 27 -1 0
208 171 28 -1 0
208 171 37 -1 0
208 171 38 -1 0
208 -171 27 -1 0
208 -171 28 -1 0
208 -171 -1 0
208 172 55 -2 0
208 172 56 -2 0
208 172 57 -2 0
208 172 58 -2 0
208 172 59 -2 0
208 172 60 -2 0
208 172 61 -2 0
208 172 69 -2 0
208 172 70 -2 0
208 172 71 -2 0
208 -172 59 -2 0
208 -172 60 -2 0
208 -172 61 -2 0
208 -172 65 -2 0
208 -172 66 -2 0
208 -172 67 -2 0
208 -172 68 -2 0
208 -172 69 -2 0
208 -172 70 -2 0
208 -172 71 -2 0
208 173 86 -3 0
208 173 87 -3 0
208 173 88 -3 0
208 173 89 -3 0
208 173 90 -3 0
208 173 91 -3 0
208 173 92 -3 0
208 173 93 -3 0
208 173 94 -3 0
208 173 104 -3 0
208 -173 94 -3 0
208 -173 96 -3 0
208 -173 97 -3 0
208 -173 98 -3 0
208 -173 99 -3 0
208 -173 100 -3 0
208 -173 101 -3 0
208 -173 102 -3 0
208 -173 103 -3 0
208 -173 104 -3 0
208 174 120 -4 0
208 174 121 -4 0
208 174 122 -4 0
208 174 123 -4 0
208 174 124 -4 0
208 174 125 -4 0
208 174 126 -4 0
208 174 127 -4 0
208 174 135 -4 0
208 174 136 -4 0
208 174 137 -4 0
208 -174 125 -4 0
208 -174 126 -4 0
208 -174 127 -4 0
208 -174 130 -4 0
208 -174 131 -4 0
208 -174 132 -4 0
208 -174 133 -4 0
208 -174 134 -4 0
208 -174 135 -4 0
208 -174 136 -4 0
208 -174 137 -4 0
208 175 149 -5 0
208 175 150 -5 0
208 175 151 -5 0
208 175 152 -5 0
208 175 153 -5 0
208 175 154 -5 0
208 175 155 -5 0
208 175 156 -5 0
208 175 157 -5 0
208 175 158 -5 0
208 175 159 -5 0
208 175 160 -5 0
208 175 169 -5 0
208 175 170 -5 0
208 -175 159 -5 0
208 -175 160 -5 0
208 -175 -5 0
